2
100 100
24
5 13 1
15 20 1
18 23 1
21 46 1
26 42 1
29 42 1
30 28 1
30 44 1
31 31 1
32 36 1
33 26 1
35 33 1
35 43 1
36 25 1
36 43 1
38 20 1
39 26 1
40 28 1
42 39 1
43 41 1
44 30 1
46 40 1
47 34 1
49 47 1
